n = 7;
colSum=[1,2,3,0,3,3,4];
rowSum=[2,2,3,2,3,3,1];
groups=[|1,1,2,2,2,3,4|1,1,1,2,3,3,4|1,1,2,2,2,3,3|5,1,1,1,1,1,1|5,5,1,6,6,6,6|6,5,6,6,6,6,6|6,6,6,6,7,7,6|];
rowN = 7;
colN = 7;
pair=[|0,1,0,0,1,1,0|1,0,1,0,0,0,0|1,1,0,1,0,0,0|0,0,1,0,0,0,0|1,0,0,0,0,1,0|0,0,0,0,1,0,1|0,0,0,0,0,1,0|];
